%%%mzn-stat: initTime=0.003298303
%%%mzn-stat: objective=417
%%%mzn-stat: nodes=793
%%%mzn-stat: restarts=0
%%%mzn-stat: peakDepth=116
%%%mzn-stat: solveTime=0.028350462
%%%mzn-stat: variables=296
%%%mzn-stat: propagators=197
%%%mzn-stat: failures=444
%%%mzn-stat: propagations=48028
%%%mzn-stat: nogoods=444
%%%mzn-stat: AverageConflictSize=5.177927927927928
%%%mzn-stat: NumUnitNogoodsLearned=416
%%%mzn-stat: AverageLearnedNogoodLength=1.6373873873873874
%%%mzn-stat: AverageBacktrackAmount=0
%%%mzn-stat: AverageLbd=1.4639639639639639
%%%mzn-stat-end
maxleg = 417;
succ = array1d(1..20,[19, 1, 6, 9, 3, 8, 16, 17, 10, 20, 18, 13, 2, 12, 7, 5, 4, 15, 11, 14]);
% time elapsed: 1.53 s
----------
==========
% time elapsed: 1.53 s
%%%mzn-stat: initTime=0.003298303
%%%mzn-stat: objective=417
%%%mzn-stat: nodes=793
%%%mzn-stat: restarts=0
%%%mzn-stat: peakDepth=116
%%%mzn-stat: solveTime=0.028355633
%%%mzn-stat: variables=296
%%%mzn-stat: propagators=197
%%%mzn-stat: failures=444
%%%mzn-stat: propagations=48028
%%%mzn-stat: nogoods=444
%%%mzn-stat: AverageConflictSize=5.177927927927928
%%%mzn-stat: NumUnitNogoodsLearned=416
%%%mzn-stat: AverageLearnedNogoodLength=1.6373873873873874
%%%mzn-stat: AverageBacktrackAmount=0
%%%mzn-stat: AverageLbd=1.4639639639639639
%%%mzn-stat-end
